408 409 411 
466 467 469 
527 529 531 
589 590 592 
649 650 652 
709 710 712 
769 770 772 
829 830 832 
889 890 892 
949 950 952 
1009 1011 1012 
1069 1071 1072 
1129 1131 1132 
1189 1190 1192 
1249 1250 1252 
1309 1310 1312 
1369 1370 1372 
1429 1430 1432 
